50
6617

368 10
224 118
63 594
656 115
178 464
446 972
405 996
903 828
221 973
909 69
619 580
254 786
413 184
377 417
686 855
288 114
358 7
427 703
285 789
965 705
471 279
772 204
366 900
518 151
430 461
539 294
380 741
80 897
866 111
637 892
371 326
213 760
976 694
634 793
537 929
703 822
480 609
80 286
874 45
517 318
267 780
794 484
962 901
598 32
734 70
492 253
36 2
649 799
164 124
81 26
